Gurobi 12.0.0:   lim:time = 14400

  mip:bestbound = 1

Set parameter LogToConsole to value 1

  tech:outlev = 1

Set parameter Cuts to value 3

  cut:cuts = 3

Set parameter Presolve to value 2

  pre:solve = 2

Set parameter MIPFocus to value 2

  mip:focus = 2

Set parameter Symmetry to value 2

  mip:symmetry = 2

Set parameter InfUnbdInfo to value 1

Gurobi Optimizer version 12.0.0 build v12.0.0rc1 (win64 - Windows 11.0 (26100.2))



CPU model: 11th Gen Intel(R) Core(TM) i7-11700 @ 2.50GHz, instruction set [SSE2|AVX|AVX2|AVX512]

Thread count: 8 physical cores, 16 logical processors, using up to 16 threads



Non-default parameters:

TimeLimit  14400

MIPFocus  2

Symmetry  2

Cuts  3

InfUnbdInfo  1

Presolve  2



Optimize a model with 286 rows, 531 columns and 2873 nonzeros

Model fingerprint: 0x425ec821

Model has 5 quadratic objective terms

Model has 9 quadratic constraints

Variable types: 33 continuous, 498 integer (0 binary)

Coefficient statistics:

  Matrix range     [1e+00, 1e+05]

  QMatrix range    [1e+00, 1e+00]

  QLMatrix range   [1e+00, 1e+01]

  Objective range  [6e+00, 1e+02]

  QObjective range [2e+00, 2e+00]

  Bounds range     [1e+00, 9e+01]

  RHS range        [1e+00, 1e+05]

  QRHS range       [1e+02, 1e+02]

Presolve removed 15 rows and 56 columns

Presolve time: 0.10s

Presolved: 616 rows, 804 columns, 4630 nonzeros

Variable types: 213 continuous, 591 integer (550 binary)

Root relaxation presolve removed 17 rows and 2 columns

Root relaxation presolved: 489 rows, 698 columns, 6805 nonzeros





Root relaxation: objective 2.964497e+01, 114 iterations, 0.01 seconds (0.01 work units)



    Nodes    |    Current Node    |     Objective Bounds      |     Work

 Expl Unexpl |  Obj  Depth IntInf | Incumbent    BestBd   Gap | It/Node Time



     0     0   29.64497    0   24          -   29.64497      -     -    0s

H    0     0                     488.5500000   29.64497  93.9%     -    0s

H    0     0                     331.4500000   29.64497  91.1%     -    0s

H    0     0                     325.4500000   29.64497  90.9%     -    0s

H    0     0                     172.7100000   51.21113  70.3%     -    0s

     0     0   63.65000    0   40  172.71000   63.65000  63.1%     -    0s

H    0     0                     166.2300000   63.65000  61.7%     -    0s

     0     0   65.15000    0   55  166.23000   65.15000  60.8%     -    0s

     0     0   65.15000    0   58  166.23000   65.15000  60.8%     -    0s

H    0     0                     163.0200000   66.80121  59.0%     -    0s

     0     0   68.19000    0   31  163.02000   68.19000  58.2%     -    0s

H    0     0                     153.9500000   68.19000  55.7%     -    0s

H    0     0                     149.0100000   68.19000  54.2%     -    0s

     0     0   69.27190    0   37  149.01000   69.27190  53.5%     -    0s

     0     0   72.40034    0   15  149.01000   72.40034  51.4%     -    0s

     0     0   73.31429    0   15  149.01000   73.31429  50.8%     -    0s

     0     0   88.50043    0   38  149.01000   88.50043  40.6%     -    1s

     0     0   89.84438    0   38  149.01000   89.84438  39.7%     -    1s

     0     0   89.84438    0   24  149.01000   89.84438  39.7%     -    1s

     0     0   89.84438    0   32  149.01000   89.84438  39.7%     -    1s

     0     0   89.84438    0   39  149.01000   89.84438  39.7%     -    1s

     0     0   89.84438    0   39  149.01000   89.84438  39.7%     -    1s

     0     0   89.84438    0   13  149.01000   89.84438  39.7%     -    1s

     0     0   89.84438    0   14  149.01000   89.84438  39.7%     -    1s

     0     0   89.84438    0   12  149.01000   89.84438  39.7%     -    1s

     0     0   89.84438    0   12  149.01000   89.84438  39.7%     -    1s

     0     2   89.84438    0   12  149.01000   89.84438  39.7%     -    1s

H  138    58                     148.7800000   89.84438  39.6%  14.9    1s



Cutting planes:

  Learned: 15

  Gomory: 22

  Lift-and-project: 4

  Cover: 8

  Implied bound: 62

  Projected implied bound: 6

  Clique: 7

  MIR: 25

  Flow cover: 118

  GUB cover: 1

  Inf proof: 2

  Zero half: 30

  RLT: 39

  Relax-and-lift: 19



Explored 790 nodes (9848 simplex iterations) in 2.09 seconds (1.02 work units)

Thread count was 16 (of 16 available processors)



Solution count 9: 148.78 149.01 153.95 ... 488.55



Optimal solution found (tolerance 1.00e-04)

Best objective 1.487800000000e+02, best bound 1.487800000000e+02, gap 0.0000%

-----RESULTS INFO-----
running_time:  2.328
TC.best_bound:  148.78
TC:  148.78
MIP Gap (%):  0
=== Vehicle Routes ===
Vehicle 1: 0 → 1
Vehicle 1: 1 → 11
Vehicle 1: 8 → 15
Vehicle 1: 11 → 8
Vehicle 2: 0 → 15
Vehicle 3: 0 → 15

=== Full Vehicle Routes ===
Vehicle 1: 0 → 1 → 11 → 8 → 0 (88<100)
Vehicle 2: 0 → 0 (0<100)
Vehicle 3: 0 → 0 (0<100)
Arc used by MRT line: y variables:
MRT used: 11 → 10
Customer assigment to PL: u variables:
2 11
3 8
4 11
5 10
6 11
7 11
Node is served by regular vehicle: g variables:
1
8
11
Customer assigment to Home delivery: gm variables:
1
Node total demands: ntd variables:
1 13 1
5 0 0
6 0 0
7 0 0
14 0 0
8 12 1
9 0 0
10 0 0
11 63 1
12 0 0
13 0 0
Customer's demand delivered to PL: l variables:
2
3
4
5
6
7
Lockers load <= capacity:
0 <= 71
12 <= 92
0 <= 73
6 <= 86
57 <= 79
0 <= 73
0 <= 82
